p tw 34 38
1 2
2 13
3 4
4 5
5 6
6 7
7 8
8 9
9 10
10 11
11 12
12 14
13 24
14 15
14 19
15 16
16 17
16 19
17 18
18 19
18 25
19 20
20 21
21 22
22 23
23 27
24 29
25 26
26 27
27 28
29 30
30 31
31 32
31 27
32 33
33 34
34 3
34 27
